
******************************************************************************
This program contains Ipopt, a library for large-scale nonlinear optimization.
 Ipopt is released as open source code under the Eclipse Public License (EPL).
         For more information visit http://projects.coin-or.org/Ipopt
******************************************************************************

This is Ipopt version 3.12.6, running with linear solver ma57.

Number of nonzeros in equality constraint Jacobian...:        0
Number of nonzeros in inequality constraint Jacobian.:     2070
Number of nonzeros in Lagrangian Hessian.............:      229

Total number of variables............................:      230
                     variables with only lower bounds:      215
                variables with lower and upper bounds:        0
                     variables with only upper bounds:        0
Total number of equality constraints.................:        0
Total number of inequality constraints...............:        9
        inequality constraints with only lower bounds:        0
   inequality constraints with lower and upper bounds:        0
        inequality constraints with only upper bounds:        9

iter    objective    inf_pr   inf_du lg(mu)  ||d||  lg(rg) alpha_du alpha_pr  ls
   0  6.9998860e-04 2.14e+03 2.00e+00  -1.0 0.00e+00    -  0.00e+00 0.00e+00   0
   1  8.2943113e-01 1.85e+03 1.59e+00  -1.0 1.36e+02    -  2.39e-01 1.35e-01f  1
   2  8.0607984e+00 1.05e+03 1.83e+00  -1.0 1.82e+02    -  3.04e-01 4.30e-01h  1
   3  7.5847695e+00 7.28e+02 7.77e+00  -1.0 7.62e+01    -  6.11e-02 3.07e-01h  1
   4 -6.1137496e+02 4.96e+02 2.25e+01  -1.0 1.95e+03    -  6.60e-04 3.18e-01f  1
   5 -7.8728501e+02 4.94e+02 1.32e+00  -1.0 6.08e+04    -  1.34e-02 2.91e-03f  1
   6 -1.1310119e+03 4.87e+02 1.72e+02  -1.0 2.13e+04    -  1.04e-01 1.65e-02f  1
   7 -2.6302591e+03 4.22e+02 2.55e+02  -1.0 1.25e+04    -  1.94e-01 1.34e-01f  1
   8 -4.9669295e+03 2.84e+02 3.45e+02  -1.0 1.01e+04    -  4.48e-01 3.27e-01f  1
   9 -5.5133880e+03 2.20e+02 8.35e+02  -1.0 4.85e+03    -  9.42e-01 2.25e-01f  1
iter    objective    inf_pr   inf_du lg(mu)  ||d||  lg(rg) alpha_du alpha_pr  ls
  10 -5.7457809e+03 1.78e+02 7.12e+02  -1.0 3.21e+03    -  9.64e-01 1.90e-01f  1
  11 -6.1376056e+03 1.18e+01 4.74e+01  -1.0 2.48e+03    -  7.80e-01 9.33e-01f  1
  12 -6.1336638e+03 0.00e+00 3.82e-03  -1.0 1.62e+02    -  9.95e-01 1.00e+00h  1
  13 -6.1551014e+03 0.00e+00 3.64e-04  -3.8 2.18e+01    -  9.99e-01 9.94e-01f  1
  14 -6.1552534e+03 0.00e+00 1.89e-11  -5.7 1.53e-01    -  1.00e+00 1.00e+00f  1
  15 -6.1552538e+03 0.00e+00 9.09e-13  -8.6 4.02e-04    -  1.00e+00 1.00e+00f  1

Number of Iterations....: 15

                                   (scaled)                 (unscaled)
Objective...............:  -6.1552538204056318e+03   -6.1552538204056318e+03
Dual infeasibility......:   9.0949470177292824e-13    9.0949470177292824e-13
Constraint violation....:   0.0000000000000000e+00    0.0000000000000000e+00
Complementarity.........:   2.5065127339799822e-09    2.5065127339799822e-09
Overall NLP error.......:   2.6296032048145522e-10    2.5065127339799822e-09


Number of objective function evaluations             = 16
Number of objective gradient evaluations             = 16
Number of equality constraint evaluations            = 0
Number of inequality constraint evaluations          = 16
Number of equality constraint Jacobian evaluations   = 0
Number of inequality constraint Jacobian evaluations = 16
Number of Lagrangian Hessian evaluations             = 15
Total CPU secs in IPOPT (w/o function evaluations)   =      0.003
Total CPU secs in NLP function evaluations           =      0.000

EXIT: Optimal Solution Found.

************************ CUTEst statistics ************************


 Package used            :  IPOPT
 Problem                 :  PRIMALC1  
 # variables             =             230
 # constraints           =               9
 # objective functions   =        0.3300000E+02
 # objective gradients   =        0.1700000E+02
 # objective Hessians    =        0.1600000E+02
 # Hessian-vector prdct  =        0.0000000E+00
 # constraints functions =        0.3400000E+02
 # constraints gradients =        0.1800000E+02
 # constraints Hessians  =        0.1600000E+02
 Exit code               =               0
 Final f                 =  -0.6155254E+04
 Set up time             =            0.01 seconds
 Solve time              =            0.04 seconds


******************************************************************

System Time =       0.0099999998 s.
